(set-info :smt-lib-version 2.6)
(set-logic ALIA)
(set-info :source |
Generated by the tool Ultimate Automizer [1,2] which implements
an automata theoretic approach [3] to software verification.

This SMT script belongs to a set of SMT scripts that was generated by
applying Ultimate Automizer to benchmarks [4] from the SV-COMP 2023 [5,6].
This script may not contain all SMT commands that Ultimate Automizer
issued. In order to meet the restrictions for SMT-COMP benchmarks 
we dropped the commands for getting values (resp. models), 
unsatisfiable cores, and interpolants.

2023-03-21, Matthias Heizmann (heizmann@informatik.uni-freiburg.de)

[1] https://ultimate.informatik.uni-freiburg.de/automizer/
[2] Matthias Heizmann, Max Barth, Daniel Dietsch, Leonard Fichtner,
     Jochen Hoenicke, Dominik Klumpp, Mehdi Naouar, Tanja Schindler,
     Frank Schüssele, Andreas Podelski: Ultimate Automizer and the
     CommuHash Normal Form (Competition Contribution). TACAS 2023
[3] Matthias Heizmann, Jochen Hoenicke, Andreas Podelski: Software Model
     Checking for People Who Love Automata. CAV 2013
[4] https://github.com/sosy-lab/sv-benchmarks
[5] Dirk Beyer: Competition on Software Verification and
     Witness Validation: SV-COMP 2023.  TACAS 2023
[6] https://sv-comp.sosy-lab.org/2023/
|)
(set-info :license "https://creativecommons.org/licenses/by/4.0/")
(set-info :category "industrial")
(set-info :status unknown)
(declare-fun ~unnamed0~0~P_ALL () Int)
(declare-fun ~unnamed0~0~P_PID () Int)
(declare-fun ~unnamed0~0~P_PGID () Int)
(assert (= ~unnamed0~0~P_ALL 0))
(assert (= ~unnamed0~0~P_PID 1))
(assert (= 2 ~unnamed0~0~P_PGID))
(declare-fun |ULTIMATE.start_inspect_~node#1.base| () Int)
(declare-fun |#memory_int| () (Array Int (Array Int Int)))
(declare-fun |#memory_$Pointer$.base| () (Array Int (Array Int Int)))
(declare-fun |ULTIMATE.start_inspect_~node#1.offset| () Int)
(declare-fun |#memory_$Pointer$.offset| () (Array Int (Array Int Int)))
(assert (= |ULTIMATE.start_inspect_~node#1.offset| 0))
(assert (= 42 (select (select |#memory_int| (select (select |#memory_$Pointer$.base| |ULTIMATE.start_inspect_~node#1.base|) 0)) 24)))
(assert (= 0 (select (select |#memory_$Pointer$.offset| |ULTIMATE.start_inspect_~node#1.base|) 0)))
(assert (not (= (select (select |#memory_$Pointer$.base| |ULTIMATE.start_inspect_~node#1.base|) 0) |ULTIMATE.start_inspect_~node#1.base|)))
(assert (not (exists ((v_ArrVal_930 (Array Int Int)) (v_DerPreprocessor_3 (Array Int Int))) (let ((.cse2 (select (select |#memory_$Pointer$.base| |ULTIMATE.start_inspect_~node#1.base|) 0))) (let ((.cse1 (select |#memory_$Pointer$.base| .cse2))) (let ((.cse0 (select (let ((.cse3 (select v_ArrVal_930 0))) (store (store (store (store (store (store |#memory_$Pointer$.base| .cse2 v_ArrVal_930) .cse3 .cse1) .cse2 v_DerPreprocessor_3) .cse3 .cse1) .cse2 v_DerPreprocessor_3) .cse3 .cse1)) .cse2))) (and (= .cse0 v_DerPreprocessor_3) (= .cse1 .cse0))))))))
(check-sat)
(exit)
